73992.38
91 77 108 107 90 78 106 105 104 89 79 113 103 102 88 80 101 100 99 87 81 114 98 97 86 82 95 96 94 85 83 84 92 93 115 116 135 136 137 138 139 134 133 117 118 132 140 141 142 143 131 130 119 120 129 144 145 128 121 127 147 146 2 20 21 22 13 3 37 36 23 12 4 24 25 26 11 5 35 34 27 10 6 28 29 30 9 7 8 31 32 33 40 63 62 64 65 66 61 60 41 42 59 58 67 68 69 57 56 43 44 55 54 70 71 72 53 52 45 46 51 50 74 73 75 49 48 47 39 38 19 14 1 15 18 17 16 0 149 151 124 123 125 150 148 126 122 112 109 111 110 76